data;
set INTER := N0 N1 N2 N3 N4 N5 N6 N7 N8 N9;
param entr := N0;
param exit := N9;
param: ROADS: cap :=
N0 N1 400, N0 N2 250, N0 N3 300
N1 N2 100, N1 N3 100, N1 N5 200
N2 N4 100, N2 N5 150
N3 N5 150, N3 N6 150
N4 N5 100, N4 N7 100
N5 N4 100, N5 N6 100, N5 N7 100, N5 N8 100
N6 N5 100, N6 N8 150
N7 N9 250, N8 N9 250;